n = 48;
rows = 1248;
supports = [|
    1,1,
  | 1,13,
  | 1,14,
  | 1,15,
  | 1,16,
  | 1,17,
  | 1,18,
  | 1,19,
  | 1,20,
  | 1,21,
  | 1,22,
  | 1,23,
  | 1,24,
  | 1,25,
  | 1,26,
  | 1,27,
  | 1,28,
  | 1,29,
  | 1,30,
  | 1,31,
  | 1,32,
  | 1,33,
  | 1,34,
  | 1,35,
  | 1,36,
  | 1,37,
  | 2,2,
  | 2,14,
  | 2,15,
  | 2,16,
  | 2,17,
  | 2,18,
  | 2,19,
  | 2,20,
  | 2,21,
  | 2,22,
  | 2,23,
  | 2,24,
  | 2,25,
  | 2,26,
  | 2,27,
  | 2,28,
  | 2,29,
  | 2,30,
  | 2,31,
  | 2,32,
  | 2,33,
  | 2,34,
  | 2,35,
  | 2,36,
  | 2,37,
  | 2,38,
  | 3,3,
  | 3,15,
  | 3,16,
  | 3,17,
  | 3,18,
  | 3,19,
  | 3,20,
  | 3,21,
  | 3,22,
  | 3,23,
  | 3,24,
  | 3,25,
  | 3,26,
  | 3,27,
  | 3,28,
  | 3,29,
  | 3,30,
  | 3,31,
  | 3,32,
  | 3,33,
  | 3,34,
  | 3,35,
  | 3,36,
  | 3,37,
  | 3,38,
  | 3,39,
  | 4,4,
  | 4,16,
  | 4,17,
  | 4,18,
  | 4,19,
  | 4,20,
  | 4,21,
  | 4,22,
  | 4,23,
  | 4,24,
  | 4,25,
  | 4,26,
  | 4,27,
  | 4,28,
  | 4,29,
  | 4,30,
  | 4,31,
  | 4,32,
  | 4,33,
  | 4,34,
  | 4,35,
  | 4,36,
  | 4,37,
  | 4,38,
  | 4,39,
  | 4,40,
  | 5,5,
  | 5,17,
  | 5,18,
  | 5,19,
  | 5,20,
  | 5,21,
  | 5,22,
  | 5,23,
  | 5,24,
  | 5,25,
  | 5,26,
  | 5,27,
  | 5,28,
  | 5,29,
  | 5,30,
  | 5,31,
  | 5,32,
  | 5,33,
  | 5,34,
  | 5,35,
  | 5,36,
  | 5,37,
  | 5,38,
  | 5,39,
  | 5,40,
  | 5,41,
  | 6,6,
  | 6,18,
  | 6,19,
  | 6,20,
  | 6,21,
  | 6,22,
  | 6,23,
  | 6,24,
  | 6,25,
  | 6,26,
  | 6,27,
  | 6,28,
  | 6,29,
  | 6,30,
  | 6,31,
  | 6,32,
  | 6,33,
  | 6,34,
  | 6,35,
  | 6,36,
  | 6,37,
  | 6,38,
  | 6,39,
  | 6,40,
  | 6,41,
  | 6,42,
  | 7,7,
  | 7,19,
  | 7,20,
  | 7,21,
  | 7,22,
  | 7,23,
  | 7,24,
  | 7,25,
  | 7,26,
  | 7,27,
  | 7,28,
  | 7,29,
  | 7,30,
  | 7,31,
  | 7,32,
  | 7,33,
  | 7,34,
  | 7,35,
  | 7,36,
  | 7,37,
  | 7,38,
  | 7,39,
  | 7,40,
  | 7,41,
  | 7,42,
  | 7,43,
  | 8,8,
  | 8,20,
  | 8,21,
  | 8,22,
  | 8,23,
  | 8,24,
  | 8,25,
  | 8,26,
  | 8,27,
  | 8,28,
  | 8,29,
  | 8,30,
  | 8,31,
  | 8,32,
  | 8,33,
  | 8,34,
  | 8,35,
  | 8,36,
  | 8,37,
  | 8,38,
  | 8,39,
  | 8,40,
  | 8,41,
  | 8,42,
  | 8,43,
  | 8,44,
  | 9,9,
  | 9,21,
  | 9,22,
  | 9,23,
  | 9,24,
  | 9,25,
  | 9,26,
  | 9,27,
  | 9,28,
  | 9,29,
  | 9,30,
  | 9,31,
  | 9,32,
  | 9,33,
  | 9,34,
  | 9,35,
  | 9,36,
  | 9,37,
  | 9,38,
  | 9,39,
  | 9,40,
  | 9,41,
  | 9,42,
  | 9,43,
  | 9,44,
  | 9,45,
  | 10,10,
  | 10,22,
  | 10,23,
  | 10,24,
  | 10,25,
  | 10,26,
  | 10,27,
  | 10,28,
  | 10,29,
  | 10,30,
  | 10,31,
  | 10,32,
  | 10,33,
  | 10,34,
  | 10,35,
  | 10,36,
  | 10,37,
  | 10,38,
  | 10,39,
  | 10,40,
  | 10,41,
  | 10,42,
  | 10,43,
  | 10,44,
  | 10,45,
  | 10,46,
  | 11,11,
  | 11,23,
  | 11,24,
  | 11,25,
  | 11,26,
  | 11,27,
  | 11,28,
  | 11,29,
  | 11,30,
  | 11,31,
  | 11,32,
  | 11,33,
  | 11,34,
  | 11,35,
  | 11,36,
  | 11,37,
  | 11,38,
  | 11,39,
  | 11,40,
  | 11,41,
  | 11,42,
  | 11,43,
  | 11,44,
  | 11,45,
  | 11,46,
  | 11,47,
  | 12,12,
  | 12,24,
  | 12,25,
  | 12,26,
  | 12,27,
  | 12,28,
  | 12,29,
  | 12,30,
  | 12,31,
  | 12,32,
  | 12,33,
  | 12,34,
  | 12,35,
  | 12,36,
  | 12,37,
  | 12,38,
  | 12,39,
  | 12,40,
  | 12,41,
  | 12,42,
  | 12,43,
  | 12,44,
  | 12,45,
  | 12,46,
  | 12,47,
  | 12,48,
  | 13,1,
  | 13,13,
  | 13,25,
  | 13,26,
  | 13,27,
  | 13,28,
  | 13,29,
  | 13,30,
  | 13,31,
  | 13,32,
  | 13,33,
  | 13,34,
  | 13,35,
  | 13,36,
  | 13,37,
  | 13,38,
  | 13,39,
  | 13,40,
  | 13,41,
  | 13,42,
  | 13,43,
  | 13,44,
  | 13,45,
  | 13,46,
  | 13,47,
  | 13,48,
  | 14,1,
  | 14,2,
  | 14,14,
  | 14,26,
  | 14,27,
  | 14,28,
  | 14,29,
  | 14,30,
  | 14,31,
  | 14,32,
  | 14,33,
  | 14,34,
  | 14,35,
  | 14,36,
  | 14,37,
  | 14,38,
  | 14,39,
  | 14,40,
  | 14,41,
  | 14,42,
  | 14,43,
  | 14,44,
  | 14,45,
  | 14,46,
  | 14,47,
  | 14,48,
  | 15,1,
  | 15,2,
  | 15,3,
  | 15,15,
  | 15,27,
  | 15,28,
  | 15,29,
  | 15,30,
  | 15,31,
  | 15,32,
  | 15,33,
  | 15,34,
  | 15,35,
  | 15,36,
  | 15,37,
  | 15,38,
  | 15,39,
  | 15,40,
  | 15,41,
  | 15,42,
  | 15,43,
  | 15,44,
  | 15,45,
  | 15,46,
  | 15,47,
  | 15,48,
  | 16,1,
  | 16,2,
  | 16,3,
  | 16,4,
  | 16,16,
  | 16,28,
  | 16,29,
  | 16,30,
  | 16,31,
  | 16,32,
  | 16,33,
  | 16,34,
  | 16,35,
  | 16,36,
  | 16,37,
  | 16,38,
  | 16,39,
  | 16,40,
  | 16,41,
  | 16,42,
  | 16,43,
  | 16,44,
  | 16,45,
  | 16,46,
  | 16,47,
  | 16,48,
  | 17,1,
  | 17,2,
  | 17,3,
  | 17,4,
  | 17,5,
  | 17,17,
  | 17,29,
  | 17,30,
  | 17,31,
  | 17,32,
  | 17,33,
  | 17,34,
  | 17,35,
  | 17,36,
  | 17,37,
  | 17,38,
  | 17,39,
  | 17,40,
  | 17,41,
  | 17,42,
  | 17,43,
  | 17,44,
  | 17,45,
  | 17,46,
  | 17,47,
  | 17,48,
  | 18,1,
  | 18,2,
  | 18,3,
  | 18,4,
  | 18,5,
  | 18,6,
  | 18,18,
  | 18,30,
  | 18,31,
  | 18,32,
  | 18,33,
  | 18,34,
  | 18,35,
  | 18,36,
  | 18,37,
  | 18,38,
  | 18,39,
  | 18,40,
  | 18,41,
  | 18,42,
  | 18,43,
  | 18,44,
  | 18,45,
  | 18,46,
  | 18,47,
  | 18,48,
  | 19,1,
  | 19,2,
  | 19,3,
  | 19,4,
  | 19,5,
  | 19,6,
  | 19,7,
  | 19,19,
  | 19,31,
  | 19,32,
  | 19,33,
  | 19,34,
  | 19,35,
  | 19,36,
  | 19,37,
  | 19,38,
  | 19,39,
  | 19,40,
  | 19,41,
  | 19,42,
  | 19,43,
  | 19,44,
  | 19,45,
  | 19,46,
  | 19,47,
  | 19,48,
  | 20,1,
  | 20,2,
  | 20,3,
  | 20,4,
  | 20,5,
  | 20,6,
  | 20,7,
  | 20,8,
  | 20,20,
  | 20,32,
  | 20,33,
  | 20,34,
  | 20,35,
  | 20,36,
  | 20,37,
  | 20,38,
  | 20,39,
  | 20,40,
  | 20,41,
  | 20,42,
  | 20,43,
  | 20,44,
  | 20,45,
  | 20,46,
  | 20,47,
  | 20,48,
  | 21,1,
  | 21,2,
  | 21,3,
  | 21,4,
  | 21,5,
  | 21,6,
  | 21,7,
  | 21,8,
  | 21,9,
  | 21,21,
  | 21,33,
  | 21,34,
  | 21,35,
  | 21,36,
  | 21,37,
  | 21,38,
  | 21,39,
  | 21,40,
  | 21,41,
  | 21,42,
  | 21,43,
  | 21,44,
  | 21,45,
  | 21,46,
  | 21,47,
  | 21,48,
  | 22,1,
  | 22,2,
  | 22,3,
  | 22,4,
  | 22,5,
  | 22,6,
  | 22,7,
  | 22,8,
  | 22,9,
  | 22,10,
  | 22,22,
  | 22,34,
  | 22,35,
  | 22,36,
  | 22,37,
  | 22,38,
  | 22,39,
  | 22,40,
  | 22,41,
  | 22,42,
  | 22,43,
  | 22,44,
  | 22,45,
  | 22,46,
  | 22,47,
  | 22,48,
  | 23,1,
  | 23,2,
  | 23,3,
  | 23,4,
  | 23,5,
  | 23,6,
  | 23,7,
  | 23,8,
  | 23,9,
  | 23,10,
  | 23,11,
  | 23,23,
  | 23,35,
  | 23,36,
  | 23,37,
  | 23,38,
  | 23,39,
  | 23,40,
  | 23,41,
  | 23,42,
  | 23,43,
  | 23,44,
  | 23,45,
  | 23,46,
  | 23,47,
  | 23,48,
  | 24,1,
  | 24,2,
  | 24,3,
  | 24,4,
  | 24,5,
  | 24,6,
  | 24,7,
  | 24,8,
  | 24,9,
  | 24,10,
  | 24,11,
  | 24,12,
  | 24,24,
  | 24,36,
  | 24,37,
  | 24,38,
  | 24,39,
  | 24,40,
  | 24,41,
  | 24,42,
  | 24,43,
  | 24,44,
  | 24,45,
  | 24,46,
  | 24,47,
  | 24,48,
  | 25,1,
  | 25,2,
  | 25,3,
  | 25,4,
  | 25,5,
  | 25,6,
  | 25,7,
  | 25,8,
  | 25,9,
  | 25,10,
  | 25,11,
  | 25,12,
  | 25,13,
  | 25,25,
  | 25,37,
  | 25,38,
  | 25,39,
  | 25,40,
  | 25,41,
  | 25,42,
  | 25,43,
  | 25,44,
  | 25,45,
  | 25,46,
  | 25,47,
  | 25,48,
  | 26,1,
  | 26,2,
  | 26,3,
  | 26,4,
  | 26,5,
  | 26,6,
  | 26,7,
  | 26,8,
  | 26,9,
  | 26,10,
  | 26,11,
  | 26,12,
  | 26,13,
  | 26,14,
  | 26,26,
  | 26,38,
  | 26,39,
  | 26,40,
  | 26,41,
  | 26,42,
  | 26,43,
  | 26,44,
  | 26,45,
  | 26,46,
  | 26,47,
  | 26,48,
  | 27,1,
  | 27,2,
  | 27,3,
  | 27,4,
  | 27,5,
  | 27,6,
  | 27,7,
  | 27,8,
  | 27,9,
  | 27,10,
  | 27,11,
  | 27,12,
  | 27,13,
  | 27,14,
  | 27,15,
  | 27,27,
  | 27,39,
  | 27,40,
  | 27,41,
  | 27,42,
  | 27,43,
  | 27,44,
  | 27,45,
  | 27,46,
  | 27,47,
  | 27,48,
  | 28,1,
  | 28,2,
  | 28,3,
  | 28,4,
  | 28,5,
  | 28,6,
  | 28,7,
  | 28,8,
  | 28,9,
  | 28,10,
  | 28,11,
  | 28,12,
  | 28,13,
  | 28,14,
  | 28,15,
  | 28,16,
  | 28,28,
  | 28,40,
  | 28,41,
  | 28,42,
  | 28,43,
  | 28,44,
  | 28,45,
  | 28,46,
  | 28,47,
  | 28,48,
  | 29,1,
  | 29,2,
  | 29,3,
  | 29,4,
  | 29,5,
  | 29,6,
  | 29,7,
  | 29,8,
  | 29,9,
  | 29,10,
  | 29,11,
  | 29,12,
  | 29,13,
  | 29,14,
  | 29,15,
  | 29,16,
  | 29,17,
  | 29,29,
  | 29,41,
  | 29,42,
  | 29,43,
  | 29,44,
  | 29,45,
  | 29,46,
  | 29,47,
  | 29,48,
  | 30,1,
  | 30,2,
  | 30,3,
  | 30,4,
  | 30,5,
  | 30,6,
  | 30,7,
  | 30,8,
  | 30,9,
  | 30,10,
  | 30,11,
  | 30,12,
  | 30,13,
  | 30,14,
  | 30,15,
  | 30,16,
  | 30,17,
  | 30,18,
  | 30,30,
  | 30,42,
  | 30,43,
  | 30,44,
  | 30,45,
  | 30,46,
  | 30,47,
  | 30,48,
  | 31,1,
  | 31,2,
  | 31,3,
  | 31,4,
  | 31,5,
  | 31,6,
  | 31,7,
  | 31,8,
  | 31,9,
  | 31,10,
  | 31,11,
  | 31,12,
  | 31,13,
  | 31,14,
  | 31,15,
  | 31,16,
  | 31,17,
  | 31,18,
  | 31,19,
  | 31,31,
  | 31,43,
  | 31,44,
  | 31,45,
  | 31,46,
  | 31,47,
  | 31,48,
  | 32,1,
  | 32,2,
  | 32,3,
  | 32,4,
  | 32,5,
  | 32,6,
  | 32,7,
  | 32,8,
  | 32,9,
  | 32,10,
  | 32,11,
  | 32,12,
  | 32,13,
  | 32,14,
  | 32,15,
  | 32,16,
  | 32,17,
  | 32,18,
  | 32,19,
  | 32,20,
  | 32,32,
  | 32,44,
  | 32,45,
  | 32,46,
  | 32,47,
  | 32,48,
  | 33,1,
  | 33,2,
  | 33,3,
  | 33,4,
  | 33,5,
  | 33,6,
  | 33,7,
  | 33,8,
  | 33,9,
  | 33,10,
  | 33,11,
  | 33,12,
  | 33,13,
  | 33,14,
  | 33,15,
  | 33,16,
  | 33,17,
  | 33,18,
  | 33,19,
  | 33,20,
  | 33,21,
  | 33,33,
  | 33,45,
  | 33,46,
  | 33,47,
  | 33,48,
  | 34,1,
  | 34,2,
  | 34,3,
  | 34,4,
  | 34,5,
  | 34,6,
  | 34,7,
  | 34,8,
  | 34,9,
  | 34,10,
  | 34,11,
  | 34,12,
  | 34,13,
  | 34,14,
  | 34,15,
  | 34,16,
  | 34,17,
  | 34,18,
  | 34,19,
  | 34,20,
  | 34,21,
  | 34,22,
  | 34,34,
  | 34,46,
  | 34,47,
  | 34,48,
  | 35,1,
  | 35,2,
  | 35,3,
  | 35,4,
  | 35,5,
  | 35,6,
  | 35,7,
  | 35,8,
  | 35,9,
  | 35,10,
  | 35,11,
  | 35,12,
  | 35,13,
  | 35,14,
  | 35,15,
  | 35,16,
  | 35,17,
  | 35,18,
  | 35,19,
  | 35,20,
  | 35,21,
  | 35,22,
  | 35,23,
  | 35,35,
  | 35,47,
  | 35,48,
  | 36,1,
  | 36,2,
  | 36,3,
  | 36,4,
  | 36,5,
  | 36,6,
  | 36,7,
  | 36,8,
  | 36,9,
  | 36,10,
  | 36,11,
  | 36,12,
  | 36,13,
  | 36,14,
  | 36,15,
  | 36,16,
  | 36,17,
  | 36,18,
  | 36,19,
  | 36,20,
  | 36,21,
  | 36,22,
  | 36,23,
  | 36,24,
  | 36,36,
  | 36,48,
  | 37,1,
  | 37,2,
  | 37,3,
  | 37,4,
  | 37,5,
  | 37,6,
  | 37,7,
  | 37,8,
  | 37,9,
  | 37,10,
  | 37,11,
  | 37,12,
  | 37,13,
  | 37,14,
  | 37,15,
  | 37,16,
  | 37,17,
  | 37,18,
  | 37,19,
  | 37,20,
  | 37,21,
  | 37,22,
  | 37,23,
  | 37,24,
  | 37,25,
  | 37,37,
  | 38,2,
  | 38,3,
  | 38,4,
  | 38,5,
  | 38,6,
  | 38,7,
  | 38,8,
  | 38,9,
  | 38,10,
  | 38,11,
  | 38,12,
  | 38,13,
  | 38,14,
  | 38,15,
  | 38,16,
  | 38,17,
  | 38,18,
  | 38,19,
  | 38,20,
  | 38,21,
  | 38,22,
  | 38,23,
  | 38,24,
  | 38,25,
  | 38,26,
  | 38,38,
  | 39,3,
  | 39,4,
  | 39,5,
  | 39,6,
  | 39,7,
  | 39,8,
  | 39,9,
  | 39,10,
  | 39,11,
  | 39,12,
  | 39,13,
  | 39,14,
  | 39,15,
  | 39,16,
  | 39,17,
  | 39,18,
  | 39,19,
  | 39,20,
  | 39,21,
  | 39,22,
  | 39,23,
  | 39,24,
  | 39,25,
  | 39,26,
  | 39,27,
  | 39,39,
  | 40,4,
  | 40,5,
  | 40,6,
  | 40,7,
  | 40,8,
  | 40,9,
  | 40,10,
  | 40,11,
  | 40,12,
  | 40,13,
  | 40,14,
  | 40,15,
  | 40,16,
  | 40,17,
  | 40,18,
  | 40,19,
  | 40,20,
  | 40,21,
  | 40,22,
  | 40,23,
  | 40,24,
  | 40,25,
  | 40,26,
  | 40,27,
  | 40,28,
  | 40,40,
  | 41,5,
  | 41,6,
  | 41,7,
  | 41,8,
  | 41,9,
  | 41,10,
  | 41,11,
  | 41,12,
  | 41,13,
  | 41,14,
  | 41,15,
  | 41,16,
  | 41,17,
  | 41,18,
  | 41,19,
  | 41,20,
  | 41,21,
  | 41,22,
  | 41,23,
  | 41,24,
  | 41,25,
  | 41,26,
  | 41,27,
  | 41,28,
  | 41,29,
  | 41,41,
  | 42,6,
  | 42,7,
  | 42,8,
  | 42,9,
  | 42,10,
  | 42,11,
  | 42,12,
  | 42,13,
  | 42,14,
  | 42,15,
  | 42,16,
  | 42,17,
  | 42,18,
  | 42,19,
  | 42,20,
  | 42,21,
  | 42,22,
  | 42,23,
  | 42,24,
  | 42,25,
  | 42,26,
  | 42,27,
  | 42,28,
  | 42,29,
  | 42,30,
  | 42,42,
  | 43,7,
  | 43,8,
  | 43,9,
  | 43,10,
  | 43,11,
  | 43,12,
  | 43,13,
  | 43,14,
  | 43,15,
  | 43,16,
  | 43,17,
  | 43,18,
  | 43,19,
  | 43,20,
  | 43,21,
  | 43,22,
  | 43,23,
  | 43,24,
  | 43,25,
  | 43,26,
  | 43,27,
  | 43,28,
  | 43,29,
  | 43,30,
  | 43,31,
  | 43,43,
  | 44,8,
  | 44,9,
  | 44,10,
  | 44,11,
  | 44,12,
  | 44,13,
  | 44,14,
  | 44,15,
  | 44,16,
  | 44,17,
  | 44,18,
  | 44,19,
  | 44,20,
  | 44,21,
  | 44,22,
  | 44,23,
  | 44,24,
  | 44,25,
  | 44,26,
  | 44,27,
  | 44,28,
  | 44,29,
  | 44,30,
  | 44,31,
  | 44,32,
  | 44,44,
  | 45,9,
  | 45,10,
  | 45,11,
  | 45,12,
  | 45,13,
  | 45,14,
  | 45,15,
  | 45,16,
  | 45,17,
  | 45,18,
  | 45,19,
  | 45,20,
  | 45,21,
  | 45,22,
  | 45,23,
  | 45,24,
  | 45,25,
  | 45,26,
  | 45,27,
  | 45,28,
  | 45,29,
  | 45,30,
  | 45,31,
  | 45,32,
  | 45,33,
  | 45,45,
  | 46,10,
  | 46,11,
  | 46,12,
  | 46,13,
  | 46,14,
  | 46,15,
  | 46,16,
  | 46,17,
  | 46,18,
  | 46,19,
  | 46,20,
  | 46,21,
  | 46,22,
  | 46,23,
  | 46,24,
  | 46,25,
  | 46,26,
  | 46,27,
  | 46,28,
  | 46,29,
  | 46,30,
  | 46,31,
  | 46,32,
  | 46,33,
  | 46,34,
  | 46,46,
  | 47,11,
  | 47,12,
  | 47,13,
  | 47,14,
  | 47,15,
  | 47,16,
  | 47,17,
  | 47,18,
  | 47,19,
  | 47,20,
  | 47,21,
  | 47,22,
  | 47,23,
  | 47,24,
  | 47,25,
  | 47,26,
  | 47,27,
  | 47,28,
  | 47,29,
  | 47,30,
  | 47,31,
  | 47,32,
  | 47,33,
  | 47,34,
  | 47,35,
  | 47,47,
  | 48,12,
  | 48,13,
  | 48,14,
  | 48,15,
  | 48,16,
  | 48,17,
  | 48,18,
  | 48,19,
  | 48,20,
  | 48,21,
  | 48,22,
  | 48,23,
  | 48,24,
  | 48,25,
  | 48,26,
  | 48,27,
  | 48,28,
  | 48,29,
  | 48,30,
  | 48,31,
  | 48,32,
  | 48,33,
  | 48,34,
  | 48,35,
  | 48,36,
  | 48,48 |];

t = 176;

indexes = [|
    0,8,
  | 0,11,
  | 0,14,
  | 0,15,
  | 0,23,
  | 0,29,
  | 0,31,
  | 1,2,
  | 1,3,
  | 1,8,
  | 1,22,
  | 1,44,
  | 1,45,
  | 2,3,
  | 2,8,
  | 2,26,
  | 3,8,
  | 3,27,
  | 3,33,
  | 3,36,
  | 3,42,
  | 4,5,
  | 4,7,
  | 4,18,
  | 4,19,
  | 4,20,
  | 4,22,
  | 4,24,
  | 5,9,
  | 5,13,
  | 5,18,
  | 5,21,
  | 5,22,
  | 5,25,
  | 6,7,
  | 6,14,
  | 6,19,
  | 6,20,
  | 6,33,
  | 6,38,
  | 6,43,
  | 6,46,
  | 7,14,
  | 7,19,
  | 7,20,
  | 7,24,
  | 7,33,
  | 7,38,
  | 7,46,
  | 8,10,
  | 8,11,
  | 8,14,
  | 9,11,
  | 9,12,
  | 9,13,
  | 9,21,
  | 9,23,
  | 9,25,
  | 9,28,
  | 9,30,
  | 9,41,
  | 10,26,
  | 10,27,
  | 10,28,
  | 10,31,
  | 10,45,
  | 10,46,
  | 11,14,
  | 11,28,
  | 11,30,
  | 11,41,
  | 12,13,
  | 12,17,
  | 12,21,
  | 12,25,
  | 12,28,
  | 12,30,
  | 12,40,
  | 12,41,
  | 13,17,
  | 13,19,
  | 13,21,
  | 13,25,
  | 13,28,
  | 13,30,
  | 13,42,
  | 13,47,
  | 14,33,
  | 14,46,
  | 15,16,
  | 15,32,
  | 15,37,
  | 16,18,
  | 16,21,
  | 16,23,
  | 16,32,
  | 16,37,
  | 16,47,
  | 17,25,
  | 17,34,
  | 17,36,
  | 17,39,
  | 17,41,
  | 18,22,
  | 18,23,
  | 18,35,
  | 18,47,
  | 19,20,
  | 19,33,
  | 19,38,
  | 19,39,
  | 19,42,
  | 19,46,
  | 19,47,
  | 20,24,
  | 20,38,
  | 20,39,
  | 20,46,
  | 21,30,
  | 21,40,
  | 22,42,
  | 22,44,
  | 22,45,
  | 23,29,
  | 23,31,
  | 23,47,
  | 24,38,
  | 24,43,
  | 24,45,
  | 24,46,
  | 25,28,
  | 25,30,
  | 25,41,
  | 26,27,
  | 26,32,
  | 26,40,
  | 26,43,
  | 26,45,
  | 27,36,
  | 27,38,
  | 27,42,
  | 27,45,
  | 28,30,
  | 28,31,
  | 28,40,
  | 28,41,
  | 28,46,
  | 29,31,
  | 29,34,
  | 29,35,
  | 29,37,
  | 29,41,
  | 30,40,
  | 31,32,
  | 31,46,
  | 32,37,
  | 32,40,
  | 32,43,
  | 33,38,
  | 33,39,
  | 34,35,
  | 34,36,
  | 34,37,
  | 34,39,
  | 34,47,
  | 35,37,
  | 36,39,
  | 36,42,
  | 36,44,
  | 38,39,
  | 38,43,
  | 38,46,
  | 40,43,
  | 42,47,
  | 43,46,
  | 44,45 |];

